%chk=PH3-DIS-3-21g-rhf.chk
%mem=6MW
%nproc=1
# scan rhf/3-21g

PH3-DIS-3-21g-rhf

0 1
 P              
 H                  1    B1
 H                  1    B1    2   93.30
 H                  1    B1    3   93.30    2  -93.30

   B1             3.5 25 -0.1

