%chk=PH3-DIS-3-21g-mp2.chk
%mem=6MW
%nproc=1
# scan rmp2/3-21g guess=mix

PH3-DIS-3-21g-mp2

0 1
 P              
 H                  1    B1
 H                  1    B1    2   93.30
 H                  1    B1    3   93.30    2  -93.30

   B1             2.5 17 -0.1

