%chk=PH3-DIS-6-31-uhf.chk
%mem=6MW
%nproc=1
# scan uhf/6-31g guess=mix

PH3-DIS-6-31g-uhf

0 1
 P              
 H                  1    B1
 H                  1    B1    2   93.30
 H                  1    B1    3   93.30    2  -93.30

   B1             3.5 25 -0.1

